# Random Circle Problem
param d := 0.05; 
param n := 10; 
param radius := 2.00; 
param v0 := 
1 5.17
2 5.64
3 5.38
4 5.36
5 5.61
6 5.90
7 5.53
8 5.01
9 5.51
10 5.84
;
param cap := 
1 3.45897
2 3.36165
3 4.81742
4 4.90479
5 5.42303
6 6.11568
7 0.14900
8 1.58914
9 1.83654
10 2.65746
;
param x0 := 
1 2.00
2 1.62
3 0.62
4 -0.62
5 -1.62
6 -2.00
7 -1.62
8 -0.62
9 0.62
10 1.62
;
param y0 := 
1 -0.00
2 1.18
3 1.90
4 1.90
5 1.18
6 0.00
7 -1.18
8 -1.90
9 -1.90
10 -1.18
;
